NAME = SAfile180,
TOURSIZE = 180,
LENGTH = 1950,
131,67,69,105,110,111,114,27,141,31,53,138,46,40,147,15,61,162,79,93,8,21,42,155,128,77,70,23,37,36,66,64,171,83,41,180,176,103,96,170,164,54,28,73,33,125,58,174,173,175,22,6,132,150,149,107,35,84,130,119,71,140,5,9,148,59,161,151,117,49,99,56,157,108,144,133,25,88,102,129,154,87,86,172,116,158,135,52,43,139,152,29,16,12,45,95,92,160,165,115,120,7,178,47,51,30,109,124,55,169,177,104,145,163,74,78,159,153,123,72,82,85,60,14,168,89,118,44,24,137,62,81,112,65,100,143,146,127,126,101,26,94,48,166,179,121,80,13,134,122,20,68,17,19,106,4,32,113,57,142,98,91,1,11,63,38,50,18,2,156,97,10,34,3,39,75,167,90,136,76